c generated by sgen1
c Command: ./sgen1 -unsat -n 5 
p cnf 5 20
-1 -2 -3  0
-1 -2 -4  0
-1 -2 -5  0
-1 -3 -4  0
-1 -3 -5  0
-1 -4 -5  0
-2 -3 -4  0
-2 -3 -5  0
-2 -4 -5  0
-3 -4 -5  0
1 2 5  0
1 2 3  0
1 2 4  0
1 5 3  0
1 5 4  0
1 3 4  0
2 5 3  0
2 5 4  0
2 3 4  0
5 3 4  0
